Linux optc-02-15 4.15.0-58-generic #64-Ubuntu SMP Tue Aug 6 11:12:41 UTC 2019 x86_64 x86_64 x86_64 GNU/Linux

top - 04:12:47 up 1 day, 18:13,  0 users,  load average: 0,43, 0,84, 0,95
Tasks: 290 gesamt,   1 laufend, 149 schlafend,   0 gestoppt,   0 Zombie
%CPU(s):  7,2 be,  0,3 sy,  0,0 ni, 92,4 un,  0,0 wa,  0,0 hi,  0,0 si,  0,0 st
KiB Spch : 97514992 gesamt, 95342920 frei,   649656 belegt,  1522420 Puff/Cache
KiB Swap:  8388604 gesamt,  8388604 frei,        0 belegt. 96123824 verfü Spch 

  PID USER      PR  NI    VIRT    RES    SHR S  %CPU %MEM     ZEIT+ BEFEHL
    1 root      20   0  233876   9400   6672 S   0,0  0,0   0:13.46 systemd
    2 root      20   0       0      0      0 S   0,0  0,0   0:00.13 kthreadd
    4 root       0 -20       0      0      0 I   0,0  0,0   0:00.00 kworker/0:+
    6 root      20   0       0      0      0 I   0,0  0,0   0:00.00 kworker/u3+
    7 root       0 -20       0      0      0 I   0,0  0,0   0:00.00 mm_percpu_+
    8 root      20   0       0      0      0 S   0,0  0,0   0:00.03 ksoftirqd/0
    9 root      20   0       0      0      0 I   0,0  0,0   0:15.65 rcu_sched
   10 root      20   0       0      0      0 I   0,0  0,0   0:00.00 rcu_bh

hard time limit: 04:10:00
hard mem limit: 55100

SLURM jobID: 2182951

@01 /nfs/optimi/kombadon/IP/miplib2010/tanglegram2.mps.gz ===========
-----------------------------
Fr 23. Aug 04:12:47 CEST 2019
-----------------------------
@03 1566526367
@05 7200
SCIP version 6.0.0 [precision: 8 byte] [memory: block] [mode: optimized] [LP solver: CPLEX 12.8.0.0] [GitHash: 41ab6e0014]
Copyright (C) 2002-2018 Konrad-Zuse-Zentrum fuer Informationstechnik Berlin (ZIB)

External codes: 
  Readline 7.0         GNU library for command line editing (gnu.org/s/readline)
  CPLEX 12.8.0.0       Linear Programming Solver developed by IBM (www.cplex.com)
  CppAD 20180000.0     Algorithmic Differentiation of C++ algorithms developed by B. Bell (www.coin-or.org/CppAD)
  ZLIB 1.2.11          General purpose compression library by J. Gailly and M. Adler (zlib.net)
  GMP 6.1.2            GNU Multiple Precision Arithmetic Library developed by T. Granlund (gmplib.org)
  bliss 0.73p          Computing Graph Automorphism Groups by T. Junttila and P. Kaski (http://www.tcs.hut.fi/Software/bliss/)

user parameter file <scip.set> not found - using default parameters

SCIP> 
SCIP> set load /home/optimi/bzfhende/opti/scip-opti/check/../settings/enable_treeeprofile.set
loaded parameter file </home/optimi/bzfhende/opti/scip-opti/check/../settings/enable_treeprofile.set>
SCIP> set misc referencevalue 443.000000000
misc/referencevalue = 443
SCIP> set limits time 7200
limits/time = 7200
SCIP> set limits nodes 2100000000
limits/nodes = 2100000000
SCIP> set limits memory 50000
limits/memory = 50000
SCIP> set lp advanced threads 1
lp/threads = 1
SCIP> set timing clocktype 1
timing/clocktype = 1
SCIP> set display freq 10000
display/freq = 10000
SCIP> set memory savefac 1.0
memory/savefac = 1
SCIP> set save /home/optimi/bzfhende/opti/scip-opti/check/treesize.estimation.jouurnal.3/bzfhende.MMMc.487_tanglegram2.scip.M640.enable_treeprofile.set
saved parameter file </home/optimi/bzfhende/opti/scip-opti/check/treesize.estimation.journal.3/bzfhende.MMMc.487_tanglegram2.scip.M640.enable_treeprofile.set>
SCIP> read /nfs/optimi/kombadon/IP/miplib2010/tanglegram2.mps.gz

read problem </nfs/optimi/kombadon/IP/miplib2010/tanglegram2.mps.gz>
============

original problem has 4714 variables (4714 bin, 0 int, 0 impl, 0 cont) and 8980 constraints
SCIP> display parameters

number of parameters = 2448
non-default parameter settings:
display/freq = 10000
limits/time = 7200
limits/nodes = 2100000000
limits/memory = 50000
lp/threads = 1
memory/savefac = 1
misc/referencevalue = 443
presolving/maxrestarts = 0
estimates/profile/enabled = TRUE
estimates/profile/maxdepthfactor = 10
estimates/profile/freq = 0

SCIP> optimize

Activating tree profile data collection
feasible solution found by trivial heuristic after 0.0 seconds, objective value 4.490000e+03
presolving:
(round 1, exhaustive) 0 del vars, 0 del conss, 0 add conss, 0 chg bounds, 0 chg sides, 0 chg coeffs, 8924 upgd conss, 0 impls, 0 clqs
(round 2, exhaustive) 0 del vars, 0 del conss, 0 add conss, 0 chg bounds, 0 chg sides, 0 chg coeffs, 8980 upgd conss, 0 impls, 0 clqs
   (0.1s) probing: 51/4714 (1.1%) - 0 fixings, 0 aggregations, 0 implications, 0 bound changes
   (0.1s) probing aborted: 50/50 successive totally useless probings
presolving (3 rounds: 3 fast, 3 medium, 3 exhaustive):
 297 deleted vars, 442 deleted constraints, 0 added constraints, 0 tightened bounds, 0 added holes, 0 changed sides, 0 changed coefficients
 0 implications, 0 cliques
presolved problem has 4417 variables (4417 bin, 0 int, 0 impl, 0 cont) and 8538 constraints
   8538 constraints of type <logicor>
transformed objective value is always integral (scale: 1)
Presolving Time: 0.09

 time | node  | left  |LP iter|LP it/n| mem |mdpt |frac |vars |cons |cols |rows |cuts |confs|strbr|  dualbound   | primalbound  |  gap   
t 0.1s|     1 |     0 |     0 |     - |  34M|   0 |   - |4417 |8538 |   0 |   0 |   0 |   0 |   0 | 0.000000e+00 | 4.269000e+03 |    Inf 
k 0.1s|     1 |     0 |     0 |     - |  44M|   0 |   - |4417 |8538 |4417 |8538 |   0 |   0 |   0 | 0.000000e+00 | 3.027000e+03 |    Inf 
b 0.1s|     1 |     0 |     0 |     - |  44M|   0 |   - |4417 |8538 |4417 |8538 |   0 |   0 |   0 | 0.000000e+00 | 4.600000e+02 |    Inf 
  0.1s|     1 |     0 |   165 |     - |  44M|   0 | 148 |4417 |8538 |4417 |8538 |   0 |   0 |   0 | 0.000000e+00 | 4.600000e+02 |    Inf 
  0.1s|     1 |     0 |   214 |     - |  47M|   0 | 156 |4417 |8538 |4417 |8545 |   7 |   0 |   0 | 3.333333e+00 | 4.600000e+02 |  Large 
  0.2s|     1 |     0 |   229 |     - |  48M|   0 | 159 |4417 |8538 |4417 |8548 |  10 |   0 |   0 | 4.833333e+00 | 4.600000e+02 |9417.24%
  0.2s|     1 |     0 |   245 |     - |  49M|   0 | 162 |4417 |8538 |4417 |8552 |  14 |   0 |   0 | 6.333333e+00 | 4.600000e+02 |7163.16%
  0.2s|     1 |     0 |   257 |     - |  50M|   0 | 163 |4417 |8538 |4417 |8554 |  16 |   0 |   0 | 6.833333e+00 | 4.600000e+02 |6631.71%
  0.2s|     1 |     0 |   277 |     - |  51M|   0 | 164 |4417 |8538 |4417 |8557 |  19 |   0 |   0 | 7.333333e+00 | 4.600000e+02 |6172.73%
  0.3s|     1 |     0 |   306 |     - |  52M|   0 | 169 |4417 |8538 |4417 |8562 |  24 |   0 |   0 | 9.833333e+00 | 4.600000e+02 |4577.97%
  0.3s|     1 |     0 |   308 |     - |  53M|   0 | 169 |4417 |8538 |4417 |8563 |  25 |   0 |   0 | 9.833333e+00 | 4.600000e+02 |4577.97%
  0.3s|     1 |     0 |   339 |     - |  54M|   0 | 171 |4417 |8538 |4417 |8570 |  32 |   0 |   0 | 1.083333e+01 | 4.600000e+02 |4146.15%
  0.3s|     1 |     0 |   368 |     - |  55M|   0 | 174 |4417 |8538 |4417 |8577 |  39 |   0 |   0 | 1.233333e+01 | 4.600000e+02 |3629.73%
  0.4s|     1 |     0 |   392 |     - |  56M|   0 | 178 |4417 |8538 |4417 |8581 |  43 |   0 |   0 | 1.291667e+01 | 4.600000e+02 |3461.29%
  0.4s|     1 |     0 |   413 |     - |  57M|   0 | 183 |4417 |8538 |4417 |8585 |  47 |   0 |   0 | 1.345833e+01 | 4.600000e+02 |3317.96%
 time | node  | left  |LP iter|LP it/n| mem |mdpt |frac |vars |cons |cols |rows |cuts |confs|strbr|  dualbound   | primalbound  |  gap   
  0.4s|     1 |     0 |   427 |     - |  58M|   0 | 184 |4417 |8538 |4417 |8588 |  50 |   0 |   0 | 1.395833e+01 | 4.600000e+02 |3195.52%
  0.5s|     1 |     0 |   465 |     - |  59M|   0 | 187 |4417 |8538 |4417 |8592 |  54 |   0 |   0 | 1.541667e+01 | 4.600000e+02 |2883.78%
  0.5s|     1 |     0 |   493 |     - |  60M|   0 | 182 |4417 |8538 |4417 |8596 |  58 |   0 |   0 | 1.625000e+01 | 4.600000e+02 |2730.77%
  0.5s|     1 |     0 |   525 |     - |  60M|   0 | 183 |4417 |8538 |4417 |8601 |  63 |   0 |   0 | 1.675000e+01 | 4.600000e+02 |2646.27%
  0.5s|     1 |     0 |   571 |     - |  61M|   0 | 187 |4417 |8538 |4417 |8605 |  67 |   0 |   0 | 1.791667e+01 | 4.600000e+02 |2467.44%
  0.6s|     1 |     0 |   607 |     - |  62M|   0 | 189 |4417 |8538 |4417 |8607 |  71 |   0 |   0 | 1.891667e+01 | 4.600000e+02 |2331.72%
  0.6s|     1 |     0 |   670 |     - |  63M|   0 | 196 |4417 |8538 |4417 |8613 |  77 |   0 |   0 | 2.083333e+01 | 4.600000e+02 |2108.00%
  0.6s|     1 |     0 |   683 |     - |  64M|   0 | 192 |4417 |8538 |4417 |8616 |  80 |   0 |   0 | 2.133333e+01 | 4.600000e+02 |2056.25%
  0.6s|     1 |     0 |   711 |     - |  65M|   0 | 194 |4417 |8538 |4417 |8620 |  84 |   0 |   0 | 2.233333e+01 | 4.600000e+02 |1959.70%
  0.7s|     1 |     0 |   746 |     - |  65M|   0 | 209 |4417 |8538 |4417 |8622 |  86 |   0 |   0 | 2.239583e+01 | 4.600000e+02 |1953.95%
  0.7s|     1 |     0 |   753 |     - |  65M|   0 | 193 |4417 |8538 |4417 |8623 |  87 |   0 |   0 | 2.250000e+01 | 4.600000e+02 |1944.44%
  0.7s|     1 |     0 |   764 |     - |  65M|   0 | 210 |4417 |8538 |4417 |8617 |  88 |   0 |   0 | 2.261667e+01 | 4.600000e+02 |1933.90%
SCIP nodes: 1 Estimation: -1
  2.9s|     1 |     2 |  3794 |     - |  66M|   0 | 210 |4417 |8538 |4417 |8617 |  88 |   0 |  22 | 1.071000e+02 | 4.600000e+02 | 329.51%
   (2.9s) symmetry computation started: requiring (bin +, int -, cont -), (fixed: bin -, int +, cont -)
   (3.8s) symmetry computation finished: 1500 generators found (max: 1500, log10 of symmetry group size: 2676.1)
   (3.8s) turning off presolver <domcol> for remaining computations in order to avoid conflicts
* 4.1s|     2 |     1 |  6817 |6053.0 | 106M|   1 |   - |4417 |8538 |4417 |8607 |  88 |   0 |  22 | 1.129000e+02 | 4.430000e+02 | 292.38%
SCIP nodes: 2 Estimation: -1
Report 1
Time Elapsed: 4.10
  Tree Data        : 3 nodes (2 visited, 1 inner, 1 leaves, 1 open), progress: 0.5000
Tree Estimation    :       estim       value       trend  resolution      smooth
  wbe              :          -1           -           -           -           -
  tree profile     :          -1           -           -           -           -
  gap              :           7     0.25485     0.25485           1           7
  progress         :           3     0.50000     0.50000           1           3
  leaf-frequency   :           2     0.25000     0.75000           1           2
  ssg              :           7     0.74515    -0.25485           1           7
  open-nodes       :           4     1.00000     1.00000           1           4
End of Report 1

Report 2
Time Elapsed: 4.43
  Tree Data        : 3 nodes (3 visited, 1 inner, 2 leaves, 0 open), progress: 1.0000
Tree Estimation    :       estim       value       trend  resolution      smooth
  wbe              :           3           -           -           -           -
  tree profile     :          -1           -           -           -           -
  gap              :           3     1.00000     0.28369           1           4
  progress         :           3     1.00000     0.47375           1           3
  leaf-frequency   :           3     0.50000     0.64275           1           3
  ssg              :           8     0.74515    -0.27663           1           8
  open-nodes       :           3     0.00000     0.76000           1           3
End of Report 2


SCIP Status        : problem is solved [optimal solution found]
Solving Time (sec) : 4.43
Solving Nodes      : 3
Primal Bound       : +4.43000000000000e+02 (11 solutions)
Dual Bound         : +4.43000000000000e+02
Gap                : 0.00 %

SCIP> display statistics

SCIP Status        : problem is solved [optimal solution found]
Total Time         :       4.45
  solving          :       4.43
  presolving       :       0.09 (included in solving)
  reading          :       0.02
  copying          :       0.02 (2 #copies) (minimal 0.01, maximal 0.01, average 0.01)
Original Problem   :
  Problem name     : tanglegram2
  Variables        : 4714 (4714 binary, 0 integer, 0 implicit integer, 0 continuous)
  Constraints      : 8980 initial, 8980 maximal
  Objective        : minimize, 4490 non-zeros (abs.min = 1, abs.max = 1)
Presolved Problem  :
  Problem name     : t_tanglegram2
  Variables        : 4417 (4417 binary, 0 integer, 0 implicit integer, 0 continuous)
  Constraints      : 8538 initial, 8538 maximal
  Objective        : minimize, 4269 non-zeros (abs.min = 1, abs.max = 1)
Presolvers         :   ExecTime  SetupTime  Calls  FixedVars   AggrVars   ChgTypes  ChgBounds   AddHoles    DelCons    AddCons   ChgSides   ChgCoefs
  boundshift       :       0.00       0.00      0          0          0          0          0          0          0          0          0          0
  convertinttobin  :       0.00       0.00      0          0          0          0          0          0          0          0          0          0
  domcol           :       0.00       0.00      1          0          0          0          0          0          0          0          0          0
  dualagg          :       0.00       0.00      0          0          0          0          0          0          0          0          0          0
  dualcomp         :       0.00       0.00      0          0          0          0          0          0          0          0          0          0
  dualinfer        :       0.00       0.00      0          0          0          0          0          0          0          0          0          0
  gateextraction   :       0.00       0.00      0          0          0          0          0          0          0          0          0          0
  implics          :       0.00       0.00      3          0          0          0          0          0          0          0          0          0
  inttobinary      :       0.00       0.00      0          0          0          0          0          0          0          0          0          0
  qpkktref         :       0.00       0.00      0          0          0          0          0          0          0          0          0          0
  redvub           :       0.00       0.00      0          0          0          0          0          0          0          0          0          0
  sparsify         :       0.00       0.00      1          0          0          0          0          0          0          0          0          0
  stuffing         :       0.00       0.00      0          0          0          0          0          0          0          0          0          0
  symbreak         :       0.00       0.00      0          0          0          0          0          0          0          0          0          0
  symmetry         :       0.00       0.00      0          0          0          0          0          0          0          0          0          0
  trivial          :       0.00       0.00      3          0          0          0          0          0          0          0          0          0
  tworowbnd        :       0.00       0.00      0          0          0          0          0          0          0          0          0          0
  dualfix          :       0.00       0.00      3          0          0          0          0          0          0          0          0          0
  genvbounds       :       0.00       0.00      0          0          0          0          0          0          0          0          0          0
  orbitalfixing    :       0.00       0.00      0          0          0          0          0          0          0          0          0          0
  probing          :       0.01       0.00      1          0          0          0          0          0          0          0          0          0
  pseudoobj        :       0.00       0.00      1          0          0          0          0          0          0          0          0          0
  vbounds          :       0.00       0.00      0          0          0          0          0          0          0          0          0          0
  linear           :       0.03       0.01      4          0          0          0          0          0          0          0          0          0
  logicor          :       0.02       0.00      5          0          0          0          0          0          0          0          0          0
  benders          :       0.00       0.00      0          0          0          0          0          0          0          0          0          0
  components       :       0.03       0.00      1        297          0          0          0          0        442          0          0          0
  root node        :          -          -      -          1          -          -          1          -          -          -          -          -
Constraints        :     Number  MaxNumber  #Separate #Propagate    #EnfoLP    #EnfoRelax  #EnfoPS    #Check   #ResProp    Cutoffs    DomReds       Cuts    Applied      Conss   Children
  benderslp        :          0          0          0          0          2          0          0         38          0          0          0          0          0          0          0
  integral         :          0          0          0          0          2          0          0         38          0          0          0          0          0          0          2
  logicor          :       8538       8538         24       3193          1          0          0         33          0          0          0          0          0          0          0
  benders          :          0          0          0          0          1          0          0         11          0          0          0          0          0          0          0
  countsols        :          0          0          0          0          1          0          0         11          0          0          0          0          0          0          0
  components       :          0          0          0          0          0          0          0          0          0          0          0          0          0          0          0
Constraint Timings :  TotalTime  SetupTime   Separate  Propagate     EnfoLP     EnfoPS     EnfoRelax   Check    ResProp    SB-Prop
  benderslp        :       0.00       0.00       0.00       0.00       0.00       0.00       0.00       0.00       0.00       0.00
  integral         :       1.81       0.00       0.00       0.00       1.81       0.00       0.00       0.00       0.00       0.00
  logicor          :       0.05       0.00       0.03       0.02       0.00       0.00       0.00       0.00       0.00       0.00
  benders          :       0.00       0.00       0.00       0.00       0.00       0.00       0.00       0.00       0.00       0.00
  countsols        :       0.00       0.00       0.00       0.00       0.00       0.00       0.00       0.00       0.00       0.00
  components       :       0.02       0.00       0.00       0.01       0.00       0.00       0.00       0.00       0.00       0.01
Propagators        : #Propagate   #ResProp    Cutoffs    DomReds
  dualfix          :          2          0          0          0
  genvbounds       :          0          0          0          0
  nlobbt           :          0          0          0          0
  obbt             :          0          0          0          0
  orbitalfixing    :          2          0          0          0
  probing          :          0          0          0          0
  pseudoobj        :         30          0          0          0
  redcost          :         25          0          0          0
  rootredcost      :          2          0          0          0
  vbounds          :       4109          0          0          0
Propagator Timings :  TotalTime  SetupTime   Presolve  Propagate    ResProp    SB-Prop
  dualfix          :       0.00       0.00       0.00       0.00       0.00       0.00
  genvbounds       :       0.01       0.00       0.00       0.01       0.00       0.00
  nlobbt           :       0.00       0.00       0.00       0.00       0.00       0.00
  obbt             :       0.00       0.00       0.00       0.00       0.00       0.00
  orbitalfixing    :       0.98       0.00       0.00       0.98       0.00       0.00
  probing          :       0.01       0.00       0.01       0.00       0.00       0.00
  pseudoobj        :       0.01       0.00       0.00       0.01       0.00       0.00
  redcost          :       0.00       0.00       0.00       0.00       0.00       0.00
  rootredcost      :       0.01       0.00       0.00       0.01       0.00       0.00
  vbounds          :       0.00       0.00       0.00       0.00       0.00       0.00
Orbital fixing     :
  vars fixed to 0  :          0
  vars fixed to 1  :          0
Conflict Analysis  :       Time      Calls    Success    DomReds  Conflicts   Literals    Reconvs ReconvLits   Dualrays   Nonzeros   LP Iters   (pool size: [--,--])
  propagation      :       0.00          0          0          -          0        0.0          0        0.0          -          -          -
  infeasible LP    :       0.00          0          0          -          0        0.0          0        0.0          0        0.0          0
  bound exceed. LP :       0.00          0          0          -          0        0.0          0        0.0          0        0.0          0
  strong branching :       0.00          0          0          -          0        0.0          0        0.0          -          -          0
  pseudo solution  :       0.00          0          0          -          0        0.0          0        0.0          -          -          -
  applied globally :       0.00          -          -          0          0        0.0          -          -          0          -          -
  applied locally  :          -          -          -          0          0        0.0          -          -          0          -          -
Separators         :   ExecTime  SetupTime      Calls    Cutoffs    DomReds       Cuts    Applied      Conss
  cut pool         :       0.00                    43          -          -        210          -          -    (maximal pool size: 238)
  aggregation      :       0.03       0.00         24          0          0          0          0          0
  cgmip            :       0.00       0.00          0          0          0          0          0          0
  clique           :       0.00       0.00          1          0          0          0          0          0
  closecuts        :       0.00       0.00          0          0          0          0          0          0
  cmir             :       0.00       0.00          0          0          0          0          0          0
  convexproj       :       0.00       0.00          0          0          0          0          0          0
  disjunctive      :       0.00       0.00          0          0          0          0          0          0
  eccuts           :       0.00       0.00          0          0          0          0          0          0
  flowcover        :       0.00       0.00          0          0          0          0          0          0
  gauge            :       0.00       0.00          0          0          0          0          0          0
  gomory           :       0.05       0.00         10          0          0          0         13          0
  impliedbounds    :       0.01       0.00         24          0          0          0          0          0
  intobj           :       0.00       0.00          0          0          0          0          0          0
  mcf              :       0.00       0.00          1          0          0          0          0          0
  oddcycle         :       0.00       0.00          0          0          0          0          0          0
  rapidlearning    :       0.00       0.00          0          0          0          0          0          0
  strongcg         :       0.08       0.00         20          0          0          0         16          0
  zerohalf         :       0.07       0.00         20          0          0          0         59          0
Pricers            :   ExecTime  SetupTime      Calls       Vars
  problem variables:       0.00          -          0          0
Branching Rules    :   ExecTime  SetupTime   BranchLP  BranchExt   BranchPS    Cutoffs    DomReds       Cuts      Conss   Children
  allfullstrong    :       0.00       0.00          0          0          0          0          0          0          0          0
  cloud            :       0.00       0.00          0          0          0          0          0          0          0          0
  distribution     :       0.00       0.00          0          0          0          0          0          0          0          0
  fullstrong       :       0.00       0.00          0          0          0          0          0          0          0          0
  inference        :       0.00       0.00          0          0          0          0          0          0          0          0
  leastinf         :       0.00       0.00          0          0          0          0          0          0          0          0
  lookahead        :       0.00       0.00          0          0          0          0          0          0          0          0
  mostinf          :       0.00       0.00          0          0          0          0          0          0          0          0
  multaggr         :       0.00       0.00          0          0          0          0          0          0          0          0
  nodereopt        :       0.00       0.00          0          0          0          0          0          0          0          0
  pscost           :       0.00       0.00          0          0          0          0          0          0          0          0
  random           :       0.00       0.00          0          0          0          0          0          0          0          0
  relpscost        :       1.81       0.00          1          0          0          0          0          0          0          2
Primal Heuristics  :   ExecTime  SetupTime      Calls      Found       Best
  LP solutions     :       0.00          -          -          1          1
  relax solutions  :       0.00          -          -          0          0
  pseudo solutions :       0.00          -          -          0          0
  strong branching :       0.00          -          -          0          0
  actconsdiving    :       0.00       0.00          0          0          0
  alns             :       0.04       0.00          1          0          0
  bound            :       0.00       0.00          0          0          0
  clique           :       0.00       0.00          0          0          0
  coefdiving       :       0.00       0.00          0          0          0
  completesol      :       0.00       0.00          0          0          0
  conflictdiving   :       0.00       0.00          0          0          0
  crossover        :       0.00       0.00          0          0          0
  dins             :       0.00       0.00          0          0          0
  distributiondivin:       0.00       0.00          0          0          0
  dualval          :       0.00       0.00          0          0          0
  farkasdiving     :       0.00       0.00          0          0          0
  feaspump         :       0.27       0.00          1          0          0
  fixandinfer      :       0.00       0.00          0          0          0
  fracdiving       :       0.00       0.00          0          0          0
  gins             :       0.00       0.00          0          0          0
  guideddiving     :       0.00       0.00          0          0          0
  indicator        :       0.00       0.00          0          0          0
  intdiving        :       0.00       0.00          0          0          0
  intshifting      :       0.00       0.00          0          0          0
  linesearchdiving :       0.00       0.00          0          0          0
  localbranching   :       0.00       0.00          0          0          0
  locks            :       0.01       0.00          1          1          1
  lpface           :       0.00       0.00          0          0          0
  mpec             :       0.00       0.00          0          0          0
  multistart       :       0.00       0.00          0          0          0
  mutation         :       0.00       0.00          0          0          0
  nlpdiving        :       0.00       0.00          0          0          0
  objpscostdiving  :       0.00       0.00          0          0          0
  octane           :       0.00       0.00          0          0          0
  ofins            :       0.00       0.00          0          0          0
  oneopt           :       0.00       0.00          2          1          1
  proximity        :       0.00       0.00          0          0          0
  pscostdiving     :       0.00       0.00          0          0          0
  randrounding     :       0.11       0.00         24          0          0
  rens             :       0.05       0.00          1          0          0
  reoptsols        :       0.00       0.00          0          0          0
  repair           :       0.00       0.00          0          0          0
  rins             :       0.00       0.00          0          0          0
  rootsoldiving    :       0.00       0.00          0          0          0
  rounding         :       0.01       0.00         24          0          0
  shiftandpropagate:       0.00       0.00          0          0          0
  shifting         :       0.06       0.00         24          4          0
  simplerounding   :       0.00       0.00         25          0          0
  subnlp           :       0.00       0.00          0          0          0
  trivial          :       0.00       0.00          2          4          2
  trivialnegation  :       0.00       0.00          0          0          0
  trysol           :       0.00       0.00          0          0          0
  twoopt           :       0.00       0.00          0          0          0
  undercover       :       0.00       0.00          0          0          0
  vbounds          :       0.00       0.00          0          0          0
  veclendiving     :       0.00       0.00          0          0          0
  zeroobj          :       0.00       0.00          0          0          0
  zirounding       :       0.00       0.00          1          0          0
  other solutions  :          -          -          -          0          -
Diving Statistics  :      Calls      Nodes   LP Iters Backtracks  Conflicts   MinDepth   MaxDepth   AvgDepth  RoundSols  NLeafSols  MinSolDpt  MaxSolDpt  AvgSolDpt
  actconsdiving    :          0          -          -          -          -          -          -          -          -          -          -          -          -
  coefdiving       :          0          -          -          -          -          -          -          -          -          -          -          -          -
  conflictdiving   :          0          -          -          -          -          -          -          -          -          -          -          -          -
  distributiondivin:          0          -          -          -          -          -          -          -          -          -          -          -          -
  farkasdiving     :          0          -          -          -          -          -          -          -          -          -          -          -          -
  fracdiving       :          0          -          -          -          -          -          -          -          -          -          -          -          -
  guideddiving     :          0          -          -          -          -          -          -          -          -          -          -          -          -
  linesearchdiving :          0          -          -          -          -          -          -          -          -          -          -          -          -
  pscostdiving     :          0          -          -          -          -          -          -          -          -          -          -          -          -
  veclendiving     :          0          -          -          -          -          -          -          -          -          -          -          -          -
Neighborhoods      :      Calls  SetupTime  SolveTime SolveNodes       Sols       Best       Exp3  EpsGreedy        UCB TgtFixRate  Opt  Inf Node Stal  Sol  Usr Othr Actv
  rens             :          0       0.00       0.00          0          0          0    0.00000   -1.00000    1.00000      0.900    0    0    0    0    0    0    0    1
  rins             :          0       0.00       0.00          0          0          0    0.00000   -1.00000    1.00000      0.900    0    0    0    0    0    0    0    1
  mutation         :          0       0.00       0.00          0          0          0    0.00000   -1.00000    1.00000      0.900    0    0    0    0    0    0    0    1
  localbranching   :          1       0.02       0.01          1          0          0    0.00000   -1.00000    1.00000      0.700    0    1    0    0    0    0    0    1
  crossover        :          0       0.00       0.00          0          0          0    0.00000   -1.00000    1.00000      0.900    0    0    0    0    0    0    0    1
  proximity        :          0       0.00       0.00          0          0          0    0.00000   -1.00000    1.00000      0.900    0    0    0    0    0    0    0    1
  zeroobjective    :          0       0.00       0.00          0          0          0    0.00000   -1.00000    1.00000      0.900    0    0    0    0    0    0    0    1
  dins             :          0       0.00       0.00          0          0          0    0.00000   -1.00000    1.00000      0.900    0    0    0    0    0    0    0    1
LP                 :       Time      Calls Iterations  Iter/call   Iter/sec  Time-0-It Calls-0-It    ItLimit
  primal LP        :       0.00          3          0       0.00          -       0.00          3
  dual LP          :       0.69         26       6956     267.54   10081.16       0.00          0
  lex dual LP      :       0.00          0          0       0.00          -
  barrier LP       :       0.00          0          0       0.00          -       0.00          0
  resolve instable :       0.00          0          0       0.00          -
  diving/probing LP:       0.27         17       3030     178.24   11222.22
  strong branching :       1.79         22      18971     862.32   10598.32          -          -         27
    (at root node) :          -         22      18971     862.32          -
  conflict analysis:       0.00          0          0       0.00          -
B&B Tree           :
  number of runs   :          1
  nodes            :          3 (1 internal, 2 leaves)
  feasible leaves  :          1
  infeas. leaves   :          0
  objective leaves :          1
  nodes (total)    :          3 (1 internal, 2 leaves)
  nodes left       :          0
  max depth        :          1
  max depth (total):          1
  backtracks       :          0 (0.0%)
  early backtracks :          0 (0.0%)
  nodes exc. ref.  :          0 (0.0%)
  delayed cutoffs  :          0
  repropagations   :          0 (0 domain reductions, 0 cutoffs)
  avg switch length:       2.00
  switching time   :       0.00
Root Node          :
  First LP value   : +0.00000000000000e+00
  First LP Iters   :        165 (16500.00 Iter/sec)
  First LP Time    :       0.01
  Final Dual Bound : +1.07100000000000e+02
  Final Root Iters :        764
  Root LP Estimate : +1.14107858888889e+03
Solution           :
  Solutions found  :         11 (5 improvements)
  First Solution   : +4.49000000000000e+03   (in run 1, after 0 nodes, 0.01 seconds, depth 0, found by <trivial>)
  Gap First Sol.   :   infinite
  Gap Last Sol.    :     292.38 %
  Primal Bound     : +4.43000000000000e+02   (in run 1, after 2 nodes, 4.10 seconds, depth 1, found by <relaxation>)
  Dual Bound       : +4.43000000000000e+02
  Gap              :       0.00 %
  Avg. Gap         :      88.86 % (393.64 primal-dual integral)
  Tree Data        : 3 nodes (3 visited, 1 inner, 2 leaves, 0 open), progress: 1.0000
Tree Estimation    :       estim       value       trend  resolution      smooth
  wbe              :           3           -           -           -           -
  tree profile     :          -1           -           -           -           -
  gap              :           3     1.00000     0.28369           1           4
  progress         :           3     1.00000     0.47375           1           3
  leaf-frequency   :           3     0.50000     0.64275           1           3
  ssg              :           8     0.74515    -0.27663           1           8
  open-nodes       :           3     0.00000     0.76000           1           3


SCIP> checksol

check best solution
solution is feasible in original problem
Violation          :    absolute    relative
  bounds           : 0.00000e+00 0.00000e+00
  integrality      : 0.00000e+00           -
  LP rows          : 0.00000e+00 0.00000e+00
  constraints      : 0.00000e+00 0.00000e+00

SCIP> write sol /local/tmp/bzfhende-tmpdir/bzfhende.MMMc.487_tanglegram2.scip.M6440.enable_treeprofile.sol

written solution information to file </local/tmp/bzfhende-tmpdir/bzfhende.MMMc.487_tanglegram2.scip.M640.enable_treeprofile.sol>

SCIP> quit

Disabling tree profile data collection
Read MPS: 1
MIP has 4714 vars and 8980 constraints
Read SOL: 1
Objective value computed by solver: 443

Integrality tolerance: 1/10000
Linear tolerance: 1/10000
Objective tolerance: 1/10000

Check SOL: Integrality 1 Constraints 1 Objective 1
Maximum violations: Integrality 0 Constraints 0 Objective 0
@04 1566526372
-----------------------------
Fr 23. Aug 04:12:52 CEST 2019
-----------------------------

=ready=
